p cnf 264 1056
c p weight 8 -1 0
c p weight -8 1 0
c p weight 10 6.12323399573676603586882014729198302312846062338790031898128063403419218957424163818359375E-17 0
c p weight -10 1 0
c p weight 11 1 0
c p weight -11 1 0
c p weight 12 -1 0
c p weight -12 1 0
c p weight 14 -1 0
c p weight -14 1 0
c p weight 16 -0.416146836547142406903532219075714237987995147705078125 0
c p weight -16 1 0
c p weight 17 0.9092974268256817094169264237280003726482391357421875 0
c p weight -17 1 0
c p weight 18 -1 0
c p weight -18 1 0
c p weight 20 -1 0
c p weight -20 1 0
c p weight 22 6.12323399573676603586882014729198302312846062338790031898128063403419218957424163818359375E-17 0
c p weight -22 1 0
c p weight 23 1 0
c p weight -23 1 0
c p weight 24 -1 0
c p weight -24 1 0
c p weight 26 -1 0
c p weight -26 1 0
c p weight 28 -0.416146836547142406903532219075714237987995147705078125 0
c p weight -28 1 0
c p weight 29 0.9092974268256817094169264237280003726482391357421875 0
c p weight -29 1 0
c p weight 30 -1 0
c p weight -30 1 0
c p weight 33 -1 0
c p weight -33 1 0
c p weight 35 -0.9684306916316953728340877205482684075832366943359375 0
c p weight -35 1 0
c p weight 36 0.249282962726609602643890184481278993189334869384765625 0
c p weight -36 1 0
c p weight 37 -1 0
c p weight -37 1 0
c p weight 40 -1 0
c p weight -40 1 0
c p weight 42 -1 0
c p weight -42 1 0
c p weight 44 6.12323399573676603586882014729198302312846062338790031898128063403419218957424163818359375E-17 0
c p weight -44 1 0
c p weight 45 1 0
c p weight -45 1 0
c p weight 46 -1 0
c p weight -46 1 0
c p weight 48 -1 0
c p weight -48 1 0
c p weight 50 -0.416146836547142406903532219075714237987995147705078125 0
c p weight -50 1 0
c p weight 51 0.9092974268256817094169264237280003726482391357421875 0
c p weight -51 1 0
c p weight 52 -1 0
c p weight -52 1 0
c p weight 55 -1 0
c p weight -55 1 0
c p weight 57 -0.9684306916316953728340877205482684075832366943359375 0
c p weight -57 1 0
c p weight 58 0.249282962726609602643890184481278993189334869384765625 0
c p weight -58 1 0
c p weight 59 -1 0
c p weight -59 1 0
c p weight 62 -1 0
c p weight -62 1 0
c p weight 64 -1 0
c p weight -64 1 0
c p weight 66 6.12323399573676603586882014729198302312846062338790031898128063403419218957424163818359375E-17 0
c p weight -66 1 0
c p weight 67 1 0
c p weight -67 1 0
c p weight 68 -1 0
c p weight -68 1 0
c p weight 70 -1 0
c p weight -70 1 0
c p weight 72 -0.416146836547142406903532219075714237987995147705078125 0
c p weight -72 1 0
c p weight 73 0.9092974268256817094169264237280003726482391357421875 0
c p weight -73 1 0
c p weight 74 -1 0
c p weight -74 1 0
c p weight 77 -1 0
c p weight -77 1 0
c p weight 79 -0.9684306916316953728340877205482684075832366943359375 0
c p weight -79 1 0
c p weight 80 0.249282962726609602643890184481278993189334869384765625 0
c p weight -80 1 0
c p weight 81 -1 0
c p weight -81 1 0
c p weight 84 -1 0
c p weight -84 1 0
c p weight 86 -1 0
c p weight -86 1 0
c p weight 88 6.12323399573676603586882014729198302312846062338790031898128063403419218957424163818359375E-17 0
c p weight -88 1 0
c p weight 89 1 0
c p weight -89 1 0
c p weight 90 -1 0
c p weight -90 1 0
c p weight 92 -1 0
c p weight -92 1 0
c p weight 94 -0.416146836547142406903532219075714237987995147705078125 0
c p weight -94 1 0
c p weight 95 0.9092974268256817094169264237280003726482391357421875 0
c p weight -95 1 0
c p weight 96 -1 0
c p weight -96 1 0
c p weight 99 -1 0
c p weight -99 1 0
c p weight 101 -0.9684306916316953728340877205482684075832366943359375 0
c p weight -101 1 0
c p weight 102 0.249282962726609602643890184481278993189334869384765625 0
c p weight -102 1 0
c p weight 103 -1 0
c p weight -103 1 0
c p weight 106 -1 0
c p weight -106 1 0
c p weight 108 -1 0
c p weight -108 1 0
c p weight 110 6.12323399573676603586882014729198302312846062338790031898128063403419218957424163818359375E-17 0
c p weight -110 1 0
c p weight 111 1 0
c p weight -111 1 0
c p weight 112 -1 0
c p weight -112 1 0
c p weight 114 -1 0
c p weight -114 1 0
c p weight 116 -0.416146836547142406903532219075714237987995147705078125 0
c p weight -116 1 0
c p weight 117 0.9092974268256817094169264237280003726482391357421875 0
c p weight -117 1 0
c p weight 118 -1 0
c p weight -118 1 0
c p weight 121 -1 0
c p weight -121 1 0
c p weight 123 -0.9684306916316953728340877205482684075832366943359375 0
c p weight -123 1 0
c p weight 124 0.249282962726609602643890184481278993189334869384765625 0
c p weight -124 1 0
c p weight 125 -1 0
c p weight -125 1 0
c p weight 128 -1 0
c p weight -128 1 0
c p weight 130 1 0
c p weight -130 1 0
c p weight 131 0 0
c p weight -131 1 0
c p weight 132 -1 0
c p weight -132 1 0
c p weight 134 6.12323399573676603586882014729198302312846062338790031898128063403419218957424163818359375E-17 0
c p weight -134 1 0
c p weight 135 1 0
c p weight -135 1 0
c p weight 136 -1 0
c p weight -136 1 0
c p weight 138 -0.6933167527464927371028124980512075126171112060546875 0
c p weight -138 1 0
c p weight 139 -0.72063297201908460554165003486559726297855377197265625 0
c p weight -139 1 0
c p weight 140 -1 0
c p weight -140 1 0
c p weight 142 6.12323399573676603586882014729198302312846062338790031898128063403419218957424163818359375E-17 0
c p weight -142 1 0
c p weight 143 1 0
c p weight -143 1 0
c p weight 144 -1 0
c p weight -144 1 0
c p weight 146 -1 0
c p weight -146 1 0
c p weight 147 3.673940397442059375002259206809000622711899723162043418511757408850826323032379150390625E-16 0
c p weight -147 1 0
c p weight 148 -1 0
c p weight -148 1 0
c p weight 151 -1 0
c p weight -151 1 0
c p weight 153 -0.9684306916316953728340877205482684075832366943359375 0
c p weight -153 1 0
c p weight 154 0.249282962726609602643890184481278993189334869384765625 0
c p weight -154 1 0
c p weight 155 -1 0
c p weight -155 1 0
c p weight 158 -1 0
c p weight -158 1 0
c p weight 160 1 0
c p weight -160 1 0
c p weight 161 0 0
c p weight -161 1 0
c p weight 162 -1 0
c p weight -162 1 0
c p weight 164 6.12323399573676603586882014729198302312846062338790031898128063403419218957424163818359375E-17 0
c p weight -164 1 0
c p weight 165 1 0
c p weight -165 1 0
c p weight 166 -1 0
c p weight -166 1 0
c p weight 168 -0.99021515964612916160803024467895738780498504638671875 0
c p weight -168 1 0
c p weight 169 -0.139549050899642146372769957451964728534221649169921875 0
c p weight -169 1 0
c p weight 170 -1 0
c p weight -170 1 0
c p weight 172 6.12323399573676603586882014729198302312846062338790031898128063403419218957424163818359375E-17 0
c p weight -172 1 0
c p weight 173 1 0
c p weight -173 1 0
c p weight 174 -1 0
c p weight -174 1 0
c p weight 176 -1 0
c p weight -176 1 0
c p weight 177 3.673940397442059375002259206809000622711899723162043418511757408850826323032379150390625E-16 0
c p weight -177 1 0
c p weight 178 -1 0
c p weight -178 1 0
c p weight 180 1 0
c p weight -180 1 0
c p weight 181 0 0
c p weight -181 1 0
c p weight 182 -1 0
c p weight -182 1 0
c p weight 184 6.12323399573676603586882014729198302312846062338790031898128063403419218957424163818359375E-17 0
c p weight -184 1 0
c p weight 185 1 0
c p weight -185 1 0
c p weight 186 -1 0
c p weight -186 1 0
c p weight 188 -0.998663479658014718864933456643484532833099365234375 0
c p weight -188 1 0
c p weight 189 -0.05168417937189277722165314798985491506755352020263671875 0
c p weight -189 1 0
c p weight 190 -1 0
c p weight -190 1 0
c p weight 192 6.12323399573676603586882014729198302312846062338790031898128063403419218957424163818359375E-17 0
c p weight -192 1 0
c p weight 193 1 0
c p weight -193 1 0
c p weight 194 -1 0
c p weight -194 1 0
c p weight 196 -1 0
c p weight -196 1 0
c p weight 197 3.673940397442059375002259206809000622711899723162043418511757408850826323032379150390625E-16 0
c p weight -197 1 0
c p weight 198 -1 0
c p weight -198 1 0
c p weight 201 -1 0
c p weight -201 1 0
c p weight 204 -1 0
c p weight -204 1 0
c p weight 206 1 0
c p weight -206 1 0
c p weight 207 0 0
c p weight -207 1 0
c p weight 208 -1 0
c p weight -208 1 0
c p weight 210 6.12323399573676603586882014729198302312846062338790031898128063403419218957424163818359375E-17 0
c p weight -210 1 0
c p weight 211 1 0
c p weight -211 1 0
c p weight 212 -1 0
c p weight -212 1 0
c p weight 214 -0.95450377842999867272766323367250151932239532470703125 0
c p weight -214 1 0
c p weight 215 -0.298198821196288432755494568482390604913234710693359375 0
c p weight -215 1 0
c p weight 216 -1 0
c p weight -216 1 0
c p weight 218 6.12323399573676603586882014729198302312846062338790031898128063403419218957424163818359375E-17 0
c p weight -218 1 0
c p weight 219 1 0
c p weight -219 1 0
c p weight 220 -1 0
c p weight -220 1 0
c p weight 222 -1 0
c p weight -222 1 0
c p weight 223 3.673940397442059375002259206809000622711899723162043418511757408850826323032379150390625E-16 0
c p weight -223 1 0
c p weight 224 -1 0
c p weight -224 1 0
c p weight 226 1 0
c p weight -226 1 0
c p weight 227 0 0
c p weight -227 1 0
c p weight 228 -1 0
c p weight -228 1 0
c p weight 230 6.12323399573676603586882014729198302312846062338790031898128063403419218957424163818359375E-17 0
c p weight -230 1 0
c p weight 231 1 0
c p weight -231 1 0
c p weight 232 -1 0
c p weight -232 1 0
c p weight 234 -0.90446933247735505911890641073114238679409027099609375 0
c p weight -234 1 0
c p weight 235 -0.426538657811889099225055588249233551323413848876953125 0
c p weight -235 1 0
c p weight 236 -1 0
c p weight -236 1 0
c p weight 238 6.12323399573676603586882014729198302312846062338790031898128063403419218957424163818359375E-17 0
c p weight -238 1 0
c p weight 239 1 0
c p weight -239 1 0
c p weight 240 -1 0
c p weight -240 1 0
c p weight 242 -1 0
c p weight -242 1 0
c p weight 243 3.673940397442059375002259206809000622711899723162043418511757408850826323032379150390625E-16 0
c p weight -243 1 0
c p weight 244 -1 0
c p weight -244 1 0
c p weight 246 1 0
c p weight -246 1 0
c p weight 247 0 0
c p weight -247 1 0
c p weight 248 -1 0
c p weight -248 1 0
c p weight 250 6.12323399573676603586882014729198302312846062338790031898128063403419218957424163818359375E-17 0
c p weight -250 1 0
c p weight 251 1 0
c p weight -251 1 0
c p weight 252 -1 0
c p weight -252 1 0
c p weight 254 -0.75839122990779872512945303242304362356662750244140625 0
c p weight -254 1 0
c p weight 255 -0.651799618286890591889459756202995777130126953125 0
c p weight -255 1 0
c p weight 256 -1 0
c p weight -256 1 0
c p weight 258 6.12323399573676603586882014729198302312846062338790031898128063403419218957424163818359375E-17 0
c p weight -258 1 0
c p weight 259 1 0
c p weight -259 1 0
c p weight 260 -1 0
c p weight -260 1 0
c p weight 262 -1 0
c p weight -262 1 0
c p weight 263 3.673940397442059375002259206809000622711899723162043418511757408850826323032379150390625E-16 0
c p weight -263 1 0
c p weight 264 -1 0
c p weight -264 1 0
-5 0
-3 0
-1 0
7 1 -2 0
7 -1 2 0
-7 1 2 0
-7 -1 -2 0
-8 1 0
-8 2 0
8 -1 -2 0
9 -1 7 0
-9 1 7 0
-10 7 0
9 -10 -1 0
-9 -10 1 0
9 10 1 -7 0
-9 10 -1 -7 0
-11 7 0
9 -11 1 0
-9 -11 -1 0
9 11 -1 -7 0
-9 11 1 -7 0
-12 9 0
-12 7 0
-12 -1 0
12 -9 1 -7 0
13 9 -7 0
13 -9 7 0
-13 9 7 0
-13 -9 -7 0
-14 9 0
-14 7 0
14 -9 -7 0
15 9 -13 0
-15 9 13 0
-16 9 0
15 -16 -13 0
-15 -16 13 0
15 16 -9 13 0
-15 16 -9 -13 0
-17 9 0
15 -17 13 0
-15 -17 -13 0
15 17 -9 -13 0
-15 17 -9 13 0
-18 9 0
-18 13 0
-18 -15 0
18 15 -9 -13 0
19 3 -4 0
19 -3 4 0
-19 3 4 0
-19 -3 -4 0
-20 3 0
-20 4 0
20 -3 -4 0
21 -3 19 0
-21 3 19 0
-22 19 0
21 -22 -3 0
-21 -22 3 0
21 22 3 -19 0
-21 22 -3 -19 0
-23 19 0
21 -23 3 0
-21 -23 -3 0
21 23 -3 -19 0
-21 23 3 -19 0
-24 21 0
-24 19 0
-24 -3 0
24 -21 3 -19 0
25 21 -19 0
25 -21 19 0
-25 21 19 0
-25 -21 -19 0
-26 21 0
-26 19 0
26 -21 -19 0
27 21 -25 0
-27 21 25 0
-28 21 0
27 -28 -25 0
-27 -28 25 0
27 28 -21 25 0
-27 28 -21 -25 0
-29 21 0
27 -29 25 0
-27 -29 -25 0
27 29 -21 -25 0
-27 29 -21 25 0
-30 21 0
-30 25 0
-30 -27 0
30 27 -21 -25 0
31 9 -21 0
31 -9 21 0
-31 9 21 0
-31 -9 -21 0
32 15 -27 0
32 -15 27 0
-32 15 27 0
-32 -15 -27 0
-33 9 0
-33 27 0
-33 21 -15 0
-33 -21 15 0
33 -9 21 15 -27 0
33 -9 -21 -15 -27 0
34 31 -27 0
-34 31 27 0
-35 31 0
34 -35 -27 0
-34 -35 27 0
34 35 -31 27 0
-34 35 -31 -27 0
-36 31 0
34 -36 27 0
-34 -36 -27 0
34 36 -31 -27 0
-34 36 -31 27 0
-37 31 0
-37 27 0
-37 -34 0
37 34 -31 -27 0
38 9 -31 0
38 -9 31 0
-38 9 31 0
-38 -9 -31 0
39 32 -34 0
39 -32 34 0
-39 32 34 0
-39 -32 -34 0
-40 9 0
-40 34 0
-40 31 -32 0
-40 -31 32 0
40 -9 31 32 -34 0
40 -9 -31 -32 -34 0
41 5 -6 0
41 -5 6 0
-41 5 6 0
-41 -5 -6 0
-42 5 0
-42 6 0
42 -5 -6 0
43 -5 41 0
-43 5 41 0
-44 41 0
43 -44 -5 0
-43 -44 5 0
43 44 5 -41 0
-43 44 -5 -41 0
-45 41 0
43 -45 5 0
-43 -45 -5 0
43 45 -5 -41 0
-43 45 5 -41 0
-46 43 0
-46 41 0
-46 -5 0
46 -43 5 -41 0
47 43 -41 0
47 -43 41 0
-47 43 41 0
-47 -43 -41 0
-48 43 0
-48 41 0
48 -43 -41 0
49 43 -47 0
-49 43 47 0
-50 43 0
49 -50 -47 0
-49 -50 47 0
49 50 -43 47 0
-49 50 -43 -47 0
-51 43 0
49 -51 47 0
-49 -51 -47 0
49 51 -43 -47 0
-49 51 -43 47 0
-52 43 0
-52 47 0
-52 -49 0
52 49 -43 -47 0
53 9 -43 0
53 -9 43 0
-53 9 43 0
-53 -9 -43 0
54 39 -49 0
54 -39 49 0
-54 39 49 0
-54 -39 -49 0
-55 9 0
-55 49 0
-55 43 -39 0
-55 -43 39 0
55 -9 43 39 -49 0
55 -9 -43 -39 -49 0
56 53 -49 0
-56 53 49 0
-57 53 0
56 -57 -49 0
-56 -57 49 0
56 57 -53 49 0
-56 57 -53 -49 0
-58 53 0
56 -58 49 0
-56 -58 -49 0
56 58 -53 -49 0
-56 58 -53 49 0
-59 53 0
-59 49 0
-59 -56 0
59 56 -53 -49 0
60 9 -53 0
60 -9 53 0
-60 9 53 0
-60 -9 -53 0
61 54 -56 0
61 -54 56 0
-61 54 56 0
-61 -54 -56 0
-62 9 0
-62 56 0
-62 53 -54 0
-62 -53 54 0
62 -9 53 54 -56 0
62 -9 -53 -54 -56 0
63 9 -61 0
63 -9 61 0
-63 9 61 0
-63 -9 -61 0
-64 9 0
-64 61 0
64 -9 -61 0
65 -9 63 0
-65 9 63 0
-66 63 0
65 -66 -9 0
-65 -66 9 0
65 66 9 -63 0
-65 66 -9 -63 0
-67 63 0
65 -67 9 0
-65 -67 -9 0
65 67 -9 -63 0
-65 67 9 -63 0
-68 65 0
-68 63 0
-68 -9 0
68 -65 9 -63 0
69 65 -63 0
69 -65 63 0
-69 65 63 0
-69 -65 -63 0
-70 65 0
-70 63 0
70 -65 -63 0
71 65 -69 0
-71 65 69 0
-72 65 0
71 -72 -69 0
-71 -72 69 0
71 72 -65 69 0
-71 72 -65 -69 0
-73 65 0
71 -73 69 0
-71 -73 -69 0
71 73 -65 -69 0
-71 73 -65 69 0
-74 65 0
-74 69 0
-74 -71 0
74 71 -65 -69 0
75 38 -60 0
75 -38 60 0
-75 38 60 0
-75 -38 -60 0
76 34 -56 0
76 -34 56 0
-76 34 56 0
-76 -34 -56 0
-77 38 0
-77 56 0
-77 60 -34 0
-77 -60 34 0
77 -38 60 34 -56 0
77 -38 -60 -34 -56 0
78 75 -56 0
-78 75 56 0
-79 75 0
78 -79 -56 0
-78 -79 56 0
78 79 -75 56 0
-78 79 -75 -56 0
-80 75 0
78 -80 56 0
-78 -80 -56 0
78 80 -75 -56 0
-78 80 -75 56 0
-81 75 0
-81 56 0
-81 -78 0
81 78 -75 -56 0
82 38 -75 0
82 -38 75 0
-82 38 75 0
-82 -38 -75 0
83 76 -78 0
83 -76 78 0
-83 76 78 0
-83 -76 -78 0
-84 38 0
-84 78 0
-84 75 -76 0
-84 -75 76 0
84 -38 75 76 -78 0
84 -38 -75 -76 -78 0
85 38 -83 0
85 -38 83 0
-85 38 83 0
-85 -38 -83 0
-86 38 0
-86 83 0
86 -38 -83 0
87 -38 85 0
-87 38 85 0
-88 85 0
87 -88 -38 0
-87 -88 38 0
87 88 38 -85 0
-87 88 -38 -85 0
-89 85 0
87 -89 38 0
-87 -89 -38 0
87 89 -38 -85 0
-87 89 38 -85 0
-90 87 0
-90 85 0
-90 -38 0
90 -87 38 -85 0
91 87 -85 0
91 -87 85 0
-91 87 85 0
-91 -87 -85 0
-92 87 0
-92 85 0
92 -87 -85 0
93 87 -91 0
-93 87 91 0
-94 87 0
93 -94 -91 0
-93 -94 91 0
93 94 -87 91 0
-93 94 -87 -91 0
-95 87 0
93 -95 91 0
-93 -95 -91 0
93 95 -87 -91 0
-93 95 -87 91 0
-96 87 0
-96 91 0
-96 -93 0
96 93 -87 -91 0
97 65 -87 0
97 -65 87 0
-97 65 87 0
-97 -65 -87 0
98 71 -93 0
98 -71 93 0
-98 71 93 0
-98 -71 -93 0
-99 65 0
-99 93 0
-99 87 -71 0
-99 -87 71 0
99 -65 87 71 -93 0
99 -65 -87 -71 -93 0
100 97 -93 0
-100 97 93 0
-101 97 0
100 -101 -93 0
-100 -101 93 0
100 101 -97 93 0
-100 101 -97 -93 0
-102 97 0
100 -102 93 0
-100 -102 -93 0
100 102 -97 -93 0
-100 102 -97 93 0
-103 97 0
-103 93 0
-103 -100 0
103 100 -97 -93 0
104 65 -97 0
104 -65 97 0
-104 65 97 0
-104 -65 -97 0
105 98 -100 0
105 -98 100 0
-105 98 100 0
-105 -98 -100 0
-106 65 0
-106 100 0
-106 97 -98 0
-106 -97 98 0
106 -65 97 98 -100 0
106 -65 -97 -98 -100 0
107 82 -78 0
107 -82 78 0
-107 82 78 0
-107 -82 -78 0
-108 82 0
-108 78 0
108 -82 -78 0
109 -82 107 0
-109 82 107 0
-110 107 0
109 -110 -82 0
-109 -110 82 0
109 110 82 -107 0
-109 110 -82 -107 0
-111 107 0
109 -111 82 0
-109 -111 -82 0
109 111 -82 -107 0
-109 111 82 -107 0
-112 109 0
-112 107 0
-112 -82 0
112 -109 82 -107 0
113 109 -107 0
113 -109 107 0
-113 109 107 0
-113 -109 -107 0
-114 109 0
-114 107 0
114 -109 -107 0
115 109 -113 0
-115 109 113 0
-116 109 0
115 -116 -113 0
-115 -116 113 0
115 116 -109 113 0
-115 116 -109 -113 0
-117 109 0
115 -117 113 0
-115 -117 -113 0
115 117 -109 -113 0
-115 117 -109 113 0
-118 109 0
-118 113 0
-118 -115 0
118 115 -109 -113 0
119 65 -109 0
119 -65 109 0
-119 65 109 0
-119 -65 -109 0
120 105 -115 0
120 -105 115 0
-120 105 115 0
-120 -105 -115 0
-121 65 0
-121 115 0
-121 109 -105 0
-121 -109 105 0
121 -65 109 105 -115 0
121 -65 -109 -105 -115 0
122 119 -115 0
-122 119 115 0
-123 119 0
122 -123 -115 0
-122 -123 115 0
122 123 -119 115 0
-122 123 -119 -115 0
-124 119 0
122 -124 115 0
-122 -124 -115 0
122 124 -119 -115 0
-122 124 -119 115 0
-125 119 0
-125 115 0
-125 -122 0
125 122 -119 -115 0
126 65 -119 0
126 -65 119 0
-126 65 119 0
-126 -65 -119 0
127 120 -122 0
127 -120 122 0
-127 120 122 0
-127 -120 -122 0
-128 65 0
-128 122 0
-128 119 -120 0
-128 -119 120 0
128 -65 119 120 -122 0
128 -65 -119 -120 -122 0
129 65 -127 0
-129 65 127 0
-130 65 0
129 -130 -127 0
-129 -130 127 0
129 130 -65 127 0
-129 130 -65 -127 0
-131 65 0
129 -131 127 0
-129 -131 -127 0
129 131 -65 -127 0
-129 131 -65 127 0
-132 65 0
-132 127 0
-132 -129 0
132 129 -65 -127 0
133 -65 129 0
-133 65 129 0
-134 129 0
133 -134 -65 0
-133 -134 65 0
133 134 65 -129 0
-133 134 -65 -129 0
-135 129 0
133 -135 65 0
-133 -135 -65 0
133 135 -65 -129 0
-133 135 65 -129 0
-136 133 0
-136 129 0
-136 -65 0
136 -133 65 -129 0
137 133 -129 0
-137 133 129 0
-138 133 0
137 -138 -129 0
-137 -138 129 0
137 138 -133 129 0
-137 138 -133 -129 0
-139 133 0
137 -139 129 0
-137 -139 -129 0
137 139 -133 -129 0
-137 139 -133 129 0
-140 133 0
-140 129 0
-140 -137 0
140 137 -133 -129 0
141 -133 137 0
-141 133 137 0
-142 137 0
141 -142 -133 0
-141 -142 133 0
141 142 133 -137 0
-141 142 -133 -137 0
-143 137 0
141 -143 133 0
-141 -143 -133 0
141 143 -133 -137 0
-141 143 133 -137 0
-144 141 0
-144 137 0
-144 -133 0
144 -141 133 -137 0
145 141 -137 0
-145 141 137 0
-146 141 0
145 -146 -137 0
-145 -146 137 0
145 146 -141 137 0
-145 146 -141 -137 0
-147 141 0
145 -147 137 0
-145 -147 -137 0
145 147 -141 -137 0
-145 147 -141 137 0
-148 141 0
-148 137 0
-148 -145 0
148 145 -141 -137 0
149 104 -126 0
149 -104 126 0
-149 104 126 0
-149 -104 -126 0
150 100 -122 0
150 -100 122 0
-150 100 122 0
-150 -100 -122 0
-151 104 0
-151 122 0
-151 126 -100 0
-151 -126 100 0
151 -104 126 100 -122 0
151 -104 -126 -100 -122 0
152 149 -122 0
-152 149 122 0
-153 149 0
152 -153 -122 0
-152 -153 122 0
152 153 -149 122 0
-152 153 -149 -122 0
-154 149 0
152 -154 122 0
-152 -154 -122 0
152 154 -149 -122 0
-152 154 -149 122 0
-155 149 0
-155 122 0
-155 -152 0
155 152 -149 -122 0
156 104 -149 0
156 -104 149 0
-156 104 149 0
-156 -104 -149 0
157 150 -152 0
157 -150 152 0
-157 150 152 0
-157 -150 -152 0
-158 104 0
-158 152 0
-158 149 -150 0
-158 -149 150 0
158 -104 149 150 -152 0
158 -104 -149 -150 -152 0
159 104 -157 0
-159 104 157 0
-160 104 0
159 -160 -157 0
-159 -160 157 0
159 160 -104 157 0
-159 160 -104 -157 0
-161 104 0
159 -161 157 0
-159 -161 -157 0
159 161 -104 -157 0
-159 161 -104 157 0
-162 104 0
-162 157 0
-162 -159 0
162 159 -104 -157 0
163 -104 159 0
-163 104 159 0
-164 159 0
163 -164 -104 0
-163 -164 104 0
163 164 104 -159 0
-163 164 -104 -159 0
-165 159 0
163 -165 104 0
-163 -165 -104 0
163 165 -104 -159 0
-163 165 104 -159 0
-166 163 0
-166 159 0
-166 -104 0
166 -163 104 -159 0
167 163 -159 0
-167 163 159 0
-168 163 0
167 -168 -159 0
-167 -168 159 0
167 168 -163 159 0
-167 168 -163 -159 0
-169 163 0
167 -169 159 0
-167 -169 -159 0
167 169 -163 -159 0
-167 169 -163 159 0
-170 163 0
-170 159 0
-170 -167 0
170 167 -163 -159 0
171 -163 167 0
-171 163 167 0
-172 167 0
171 -172 -163 0
-171 -172 163 0
171 172 163 -167 0
-171 172 -163 -167 0
-173 167 0
171 -173 163 0
-171 -173 -163 0
171 173 -163 -167 0
-171 173 163 -167 0
-174 171 0
-174 167 0
-174 -163 0
174 -171 163 -167 0
175 171 -167 0
-175 171 167 0
-176 171 0
175 -176 -167 0
-175 -176 167 0
175 176 -171 167 0
-175 176 -171 -167 0
-177 171 0
175 -177 167 0
-175 -177 -167 0
175 177 -171 -167 0
-175 177 -171 167 0
-178 171 0
-178 167 0
-178 -175 0
178 175 -171 -167 0
179 156 -152 0
-179 156 152 0
-180 156 0
179 -180 -152 0
-179 -180 152 0
179 180 -156 152 0
-179 180 -156 -152 0
-181 156 0
179 -181 152 0
-179 -181 -152 0
179 181 -156 -152 0
-179 181 -156 152 0
-182 156 0
-182 152 0
-182 -179 0
182 179 -156 -152 0
183 -156 179 0
-183 156 179 0
-184 179 0
183 -184 -156 0
-183 -184 156 0
183 184 156 -179 0
-183 184 -156 -179 0
-185 179 0
183 -185 156 0
-183 -185 -156 0
183 185 -156 -179 0
-183 185 156 -179 0
-186 183 0
-186 179 0
-186 -156 0
186 -183 156 -179 0
187 183 -179 0
-187 183 179 0
-188 183 0
187 -188 -179 0
-187 -188 179 0
187 188 -183 179 0
-187 188 -183 -179 0
-189 183 0
187 -189 179 0
-187 -189 -179 0
187 189 -183 -179 0
-187 189 -183 179 0
-190 183 0
-190 179 0
-190 -187 0
190 187 -183 -179 0
191 -183 187 0
-191 183 187 0
-192 187 0
191 -192 -183 0
-191 -192 183 0
191 192 183 -187 0
-191 192 -183 -187 0
-193 187 0
191 -193 183 0
-191 -193 -183 0
191 193 -183 -187 0
-191 193 183 -187 0
-194 191 0
-194 187 0
-194 -183 0
194 -191 183 -187 0
195 191 -187 0
-195 191 187 0
-196 191 0
195 -196 -187 0
-195 -196 187 0
195 196 -191 187 0
-195 196 -191 -187 0
-197 191 0
195 -197 187 0
-195 -197 -187 0
195 197 -191 -187 0
-195 197 -191 187 0
-198 191 0
-198 187 0
-198 -195 0
198 195 -191 -187 0
199 171 -191 0
199 -171 191 0
-199 171 191 0
-199 -171 -191 0
200 175 -195 0
200 -175 195 0
-200 175 195 0
-200 -175 -195 0
-201 171 0
-201 195 0
-201 191 -175 0
-201 -191 175 0
201 -171 191 175 -195 0
201 -171 -191 -175 -195 0
202 141 -171 0
202 -141 171 0
-202 141 171 0
-202 -141 -171 0
203 145 -200 0
203 -145 200 0
-203 145 200 0
-203 -145 -200 0
-204 141 0
-204 200 0
-204 171 -145 0
-204 -171 145 0
204 -141 171 145 -200 0
204 -141 -171 -145 -200 0
205 141 -203 0
-205 141 203 0
-206 141 0
205 -206 -203 0
-205 -206 203 0
205 206 -141 203 0
-205 206 -141 -203 0
-207 141 0
205 -207 203 0
-205 -207 -203 0
205 207 -141 -203 0
-205 207 -141 203 0
-208 141 0
-208 203 0
-208 -205 0
208 205 -141 -203 0
209 -141 205 0
-209 141 205 0
-210 205 0
209 -210 -141 0
-209 -210 141 0
209 210 141 -205 0
-209 210 -141 -205 0
-211 205 0
209 -211 141 0
-209 -211 -141 0
209 211 -141 -205 0
-209 211 141 -205 0
-212 209 0
-212 205 0
-212 -141 0
212 -209 141 -205 0
213 209 -205 0
-213 209 205 0
-214 209 0
213 -214 -205 0
-213 -214 205 0
213 214 -209 205 0
-213 214 -209 -205 0
-215 209 0
213 -215 205 0
-213 -215 -205 0
213 215 -209 -205 0
-213 215 -209 205 0
-216 209 0
-216 205 0
-216 -213 0
216 213 -209 -205 0
217 -209 213 0
-217 209 213 0
-218 213 0
217 -218 -209 0
-217 -218 209 0
217 218 209 -213 0
-217 218 -209 -213 0
-219 213 0
217 -219 209 0
-217 -219 -209 0
217 219 -209 -213 0
-217 219 209 -213 0
-220 217 0
-220 213 0
-220 -209 0
220 -217 209 -213 0
221 217 -213 0
-221 217 213 0
-222 217 0
221 -222 -213 0
-221 -222 213 0
221 222 -217 213 0
-221 222 -217 -213 0
-223 217 0
221 -223 213 0
-221 -223 -213 0
221 223 -217 -213 0
-221 223 -217 213 0
-224 217 0
-224 213 0
-224 -221 0
224 221 -217 -213 0
225 202 -200 0
-225 202 200 0
-226 202 0
225 -226 -200 0
-225 -226 200 0
225 226 -202 200 0
-225 226 -202 -200 0
-227 202 0
225 -227 200 0
-225 -227 -200 0
225 227 -202 -200 0
-225 227 -202 200 0
-228 202 0
-228 200 0
-228 -225 0
228 225 -202 -200 0
229 -202 225 0
-229 202 225 0
-230 225 0
229 -230 -202 0
-229 -230 202 0
229 230 202 -225 0
-229 230 -202 -225 0
-231 225 0
229 -231 202 0
-229 -231 -202 0
229 231 -202 -225 0
-229 231 202 -225 0
-232 229 0
-232 225 0
-232 -202 0
232 -229 202 -225 0
233 229 -225 0
-233 229 225 0
-234 229 0
233 -234 -225 0
-233 -234 225 0
233 234 -229 225 0
-233 234 -229 -225 0
-235 229 0
233 -235 225 0
-233 -235 -225 0
233 235 -229 -225 0
-233 235 -229 225 0
-236 229 0
-236 225 0
-236 -233 0
236 233 -229 -225 0
237 -229 233 0
-237 229 233 0
-238 233 0
237 -238 -229 0
-237 -238 229 0
237 238 229 -233 0
-237 238 -229 -233 0
-239 233 0
237 -239 229 0
-237 -239 -229 0
237 239 -229 -233 0
-237 239 229 -233 0
-240 237 0
-240 233 0
-240 -229 0
240 -237 229 -233 0
241 237 -233 0
-241 237 233 0
-242 237 0
241 -242 -233 0
-241 -242 233 0
241 242 -237 233 0
-241 242 -237 -233 0
-243 237 0
241 -243 233 0
-241 -243 -233 0
241 243 -237 -233 0
-241 243 -237 233 0
-244 237 0
-244 233 0
-244 -241 0
244 241 -237 -233 0
245 199 -195 0
-245 199 195 0
-246 199 0
245 -246 -195 0
-245 -246 195 0
245 246 -199 195 0
-245 246 -199 -195 0
-247 199 0
245 -247 195 0
-245 -247 -195 0
245 247 -199 -195 0
-245 247 -199 195 0
-248 199 0
-248 195 0
-248 -245 0
248 245 -199 -195 0
249 -199 245 0
-249 199 245 0
-250 245 0
249 -250 -199 0
-249 -250 199 0
249 250 199 -245 0
-249 250 -199 -245 0
-251 245 0
249 -251 199 0
-249 -251 -199 0
249 251 -199 -245 0
-249 251 199 -245 0
-252 249 0
-252 245 0
-252 -199 0
252 -249 199 -245 0
253 249 -245 0
-253 249 245 0
-254 249 0
253 -254 -245 0
-253 -254 245 0
253 254 -249 245 0
-253 254 -249 -245 0
-255 249 0
253 -255 245 0
-253 -255 -245 0
253 255 -249 -245 0
-253 255 -249 245 0
-256 249 0
-256 245 0
-256 -253 0
256 253 -249 -245 0
257 -249 253 0
-257 249 253 0
-258 253 0
257 -258 -249 0
-257 -258 249 0
257 258 249 -253 0
-257 258 -249 -253 0
-259 253 0
257 -259 249 0
-257 -259 -249 0
257 259 -249 -253 0
-257 259 249 -253 0
-260 257 0
-260 253 0
-260 -249 0
260 -257 249 -253 0
261 257 -253 0
-261 257 253 0
-262 257 0
261 -262 -253 0
-261 -262 253 0
261 262 -257 253 0
-261 262 -257 -253 0
-263 257 0
261 -263 253 0
-261 -263 -253 0
261 263 -257 -253 0
-261 263 -257 253 0
-264 257 0
-264 253 0
-264 -261 0
264 261 -257 -253 0
-217 0
-237 0
-241 0
-257 0
-261 0
